
Gurobi 12.0.2 (win64) logging started Fri Jun  6 10:09:58 2025

Set parameter LogFile to value "C:\Ioana\_uni\honours\slp\algorithm\Main_files\results\others\prox_tubules_new\Task_009_Sample003_irr_gurobi.log"
Gurobi Optimizer version 12.0.2 build v12.0.2rc0 (win64 - Windows 11.0 (26100.2))

CPU model: Intel(R) Core(TM) Ultra 5 125H, instruction set [SSE2|AVX|AVX2]
Thread count: 14 physical cores, 18 logical processors, using up to 18 threads

Non-default parameters:
TimeLimit  2200

Optimize a model with 47658 rows, 34794 columns and 147841 nonzeros
Model fingerprint: 0x151622c2
Variable types: 17400 continuous, 17394 integer (17394 binary)
Coefficient statistics:
  Matrix range     [1e-04, 8e+04]
  Objective range  [2e-04, 9e-01]
  Bounds range     [1e+00, 1e+03]
  RHS range        [1e+00, 1e+00]
Presolve removed 31250 rows and 21835 columns
Presolve time: 0.30s
Presolved: 16408 rows, 12959 columns, 54589 nonzeros
Variable types: 6413 continuous, 6546 integer (6546 binary)

Root relaxation: objective 4.877538e-04, 1303 iterations, 0.07 seconds (0.12 work units)

    Nodes    |    Current Node    |     Objective Bounds      |     Work
 Expl Unexpl |  Obj  Depth IntInf | Incumbent    BestBd   Gap | It/Node Time

     0     0    0.00049    0    7          -    0.00049      -     -    0s
H    0     0                       0.2079693    0.00049   100%     -    0s
     0     0    0.01814    0   15    0.20797    0.01814  91.3%     -    0s
H    0     0                       0.2067345    0.01814  91.2%     -    0s

Explored 1 nodes (1650 simplex iterations) in 0.66 seconds (0.74 work units)
Thread count was 18 (of 18 available processors)

Solution count 2: 0.206735 0.207969 

Optimal solution found (tolerance 1.00e-04)
Best objective 2.067345276258e-01, best bound 2.067345276258e-01, gap 0.0000%
